[ti. 04. april 14:48:55 +0200 2023]  ./input/alternate_g_np/50-4-4.gcc
Set parameter Username
Academic license - for non-commercial use only - expires 2024-03-28
Set parameter TimeLimit to value 1800
Set parameter PreCrush to value 1
Set parameter LazyConstraints to value 1
Gurobi Optimizer version 10.0.1 build v10.0.1rc0 (linux64)

CPU model: AMD Ryzen 9 5950X 16-Core Processor, instruction set [SSE2|AVX|AVX2]
Thread count: 16 physical cores, 32 logical processors, using up to 32 threads

Optimize a model with 54 rows, 250 columns and 650 nonzeros
Model fingerprint: 0x5127edf0
Variable types: 0 continuous, 250 integer (250 binary)
Coefficient statistics:
  Matrix range     [1e+00, 1e+00]
  Objective range  [3e+00, 1e+02]
  Bounds range     [1e+00, 1e+00]
  RHS range        [1e+00, 1e+00]
Presolve time: 0.00s
Presolved: 54 rows, 250 columns, 650 nonzeros
Variable types: 0 continuous, 250 integer (250 binary)

Root relaxation: objective 2.377000e+03, 4 iterations, 0.00 seconds (0.00 work units)

    Nodes    |    Current Node    |     Objective Bounds      |     Work
 Expl Unexpl |  Obj  Depth IntInf | Incumbent    BestBd   Gap | It/Node Time

     0     0 2377.00000    0    4          - 2377.00000      -     -    0s
     0     0 2377.00000    0    8          - 2377.00000      -     -    0s
     0     0 2377.00000    0    -          - 2377.00000      -     -    0s
     0     0 2377.00000    0    6          - 2377.00000      -     -    0s
     0     0 2377.00000    0    -          - 2377.00000      -     -    0s
     0     0 2377.00000    0    4          - 2377.00000      -     -    0s
     0     0 2377.00000    0    6          - 2377.00000      -     -    0s
     0     0 2377.00000    0    2          - 2377.00000      -     -    0s
     0     2 2377.00000    0    2          - 2377.00000      -     -    0s
 26711 16718 2310.59865   35   50          - 2377.00000      -  25.1    5s
 52839 35559 2374.52381   31   90          - 2377.00000      -  28.9   10s
 72849 49252 2376.03742   35  111          - 2377.00000      -  34.3   15s
*80916 54238              20     260.0000000 2377.00000   814%  36.5   17s
H81515 53121                    1810.0000067 2377.00000  31.3%  36.9   17s
H84211 37752                    2171.0000000 2377.00000  9.49%  37.7   18s
H84314 21050                    2273.0000000 2377.00000  4.58%  37.7   19s
 85697 20962     cutoff   23      2273.00000 2377.00000  4.58%  38.7   20s
 91432 22870 2323.40000   35   49 2273.00000 2377.00000  4.58%  43.2   25s
 98903 25465 2375.38696   41  107 2273.00000 2377.00000  4.58%  48.1   30s
 111850 29940 2313.00000   52   54 2273.00000 2377.00000  4.58%  52.6   35s
 126475 32918 2325.00000   30   74 2273.00000 2373.17450  4.41%  57.1   40s
 141880 35467 2287.50000   39   76 2273.00000 2366.64559  4.12%  60.9   45s
 151832 37139 2279.44223   48  122 2273.00000 2362.96160  3.96%  62.9   50s
 152110 37183 2340.05237   38  197 2273.00000 2362.96160  3.96%  63.7   56s
 152620 37068 2285.92144   42  154 2273.00000 2362.96160  3.96%  64.1   60s

Cutting planes:
  User: 462
  Clique: 1
  Lazy constraints: 40

Explored 155219 nodes (10084206 simplex iterations) in 63.14 seconds (89.50 work units)
Thread count was 32 (of 32 available processors)

Solution count 4: 2273 2171 1810 260 

Optimal solution found (tolerance 1.00e-04)
Best objective 2.273000000000e+03, best bound 2.273000000000e+03, gap 0.0000%

User-callback calls 322282, time in user-callback 12.90 sec
Minimal separator inequalities added: 128367
Indegree inequalities added: 597331
Passed solution check
[ti. 04. april 14:49:58 +0200 2023]  done

